p cnf 121 469
36 37 38 39 40 41 42 43 44 45 46 47 48 0
96 97 98 99 100 101 102 103 104 105 106 107 0
-1 -10 0
-1 -23 0
-1 -36 0
-1 -49 0
-1 -62 0
-1 -73 0
-1 -83 0
-1 -96 0
-1 -108 0
-10 -23 0
-10 -36 0
-10 -49 0
-10 -62 0
-10 -73 0
-10 -83 0
-10 -96 0
-10 -108 0
-23 -36 0
-23 -49 0
-23 -62 0
-23 -73 0
-23 -83 0
-23 -96 0
-23 -108 0
-36 -49 0
-36 -62 0
-36 -73 0
-36 -83 0
-36 -96 0
-36 -108 0
-49 -62 0
-49 -73 0
-49 -83 0
-49 -96 0
-49 -108 0
-62 -73 0
-62 -83 0
-62 -96 0
-62 -108 0
-73 -83 0
-73 -96 0
-73 -108 0
-83 -96 0
-83 -108 0
-96 -108 0
-11 -24 0
-11 -37 0
-11 -50 0
-11 -63 0
-11 -74 0
-11 -84 0
-11 -97 0
-11 -109 0
-24 -37 0
-24 -50 0
-24 -63 0
-24 -74 0
-24 -84 0
-24 -97 0
-24 -109 0
-37 -50 0
-37 -63 0
-37 -74 0
-37 -84 0
-37 -97 0
-37 -109 0
-50 -63 0
-50 -74 0
-50 -84 0
-50 -97 0
-50 -109 0
-63 -74 0
-63 -84 0
-63 -97 0
-63 -109 0
-74 -84 0
-74 -97 0
-74 -109 0
-84 -97 0
-84 -109 0
-97 -109 0
-12 -25 0
-12 -51 0
-12 -64 0
-12 -75 0
-12 -85 0
-12 -98 0
-12 -110 0
-25 -51 0
-25 -64 0
-25 -75 0
-25 -85 0
-25 -98 0
-25 -110 0
-51 -64 0
-51 -75 0
-51 -85 0
-51 -98 0
-51 -110 0
-64 -75 0
-64 -85 0
-64 -98 0
-64 -110 0
-75 -85 0
-75 -98 0
-75 -110 0
-85 -98 0
-85 -110 0
-98 -110 0
-2 -13 0
-2 -26 0
-2 -38 0
-2 -52 0
-2 -65 0
-2 -86 0
-2 -99 0
-2 -111 0
-13 -26 0
-13 -38 0
-13 -52 0
-13 -65 0
-13 -86 0
-13 -99 0
-13 -111 0
-26 -38 0
-26 -52 0
-26 -65 0
-26 -86 0
-26 -99 0
-26 -111 0
-38 -52 0
-38 -65 0
-38 -86 0
-38 -99 0
-38 -111 0
-52 -65 0
-52 -86 0
-52 -99 0
-52 -111 0
-65 -86 0
-65 -99 0
-65 -111 0
-86 -99 0
-86 -111 0
-99 -111 0
-3 -14 0
-3 -27 0
-3 -39 0
-3 -53 0
-3 -66 0
-3 -76 0
-3 -87 0
-3 -100 0
-3 -112 0
-14 -27 0
-14 -39 0
-14 -53 0
-14 -66 0
-14 -76 0
-14 -87 0
-14 -100 0
-14 -112 0
-27 -39 0
-27 -53 0
-27 -66 0
-27 -76 0
-27 -87 0
-27 -100 0
-27 -112 0
-39 -53 0
-39 -66 0
-39 -76 0
-39 -87 0
-39 -100 0
-39 -112 0
-53 -66 0
-53 -76 0
-53 -87 0
-53 -100 0
-53 -112 0
-66 -76 0
-66 -87 0
-66 -100 0
-66 -112 0
-76 -87 0
-76 -100 0
-76 -112 0
-87 -100 0
-87 -112 0
-100 -112 0
-4 -15 0
-4 -28 0
-4 -40 0
-4 -77 0
-4 -88 0
-4 -101 0
-4 -113 0
-15 -28 0
-15 -40 0
-15 -77 0
-15 -88 0
-15 -101 0
-15 -113 0
-28 -40 0
-28 -77 0
-28 -88 0
-28 -101 0
-28 -113 0
-40 -77 0
-40 -88 0
-40 -101 0
-40 -113 0
-77 -88 0
-77 -101 0
-77 -113 0
-88 -101 0
-88 -113 0
-101 -113 0
-5 -41 0
-5 -54 0
-5 -78 0
-5 -89 0
-5 -102 0
-5 -114 0
-41 -54 0
-41 -78 0
-41 -89 0
-41 -102 0
-41 -114 0
-54 -78 0
-54 -89 0
-54 -102 0
-54 -114 0
-78 -89 0
-78 -102 0
-78 -114 0
-89 -102 0
-89 -114 0
-102 -114 0
-6 -16 0
-6 -29 0
-6 -42 0
-6 -55 0
-6 -67 0
-6 -103 0
-6 -115 0
-16 -29 0
-16 -42 0
-16 -55 0
-16 -67 0
-16 -103 0
-16 -115 0
-29 -42 0
-29 -55 0
-29 -67 0
-29 -103 0
-29 -115 0
-42 -55 0
-42 -67 0
-42 -103 0
-42 -115 0
-55 -67 0
-55 -103 0
-55 -115 0
-67 -103 0
-67 -115 0
-103 -115 0
-7 -17 0
-7 -30 0
-7 -43 0
-7 -56 0
-7 -68 0
-7 -90 0
-7 -104 0
-7 -116 0
-17 -30 0
-17 -43 0
-17 -56 0
-17 -68 0
-17 -90 0
-17 -104 0
-17 -116 0
-30 -43 0
-30 -56 0
-30 -68 0
-30 -90 0
-30 -104 0
-30 -116 0
-43 -56 0
-43 -68 0
-43 -90 0
-43 -104 0
-43 -116 0
-56 -68 0
-56 -90 0
-56 -104 0
-56 -116 0
-68 -90 0
-68 -104 0
-68 -116 0
-90 -104 0
-90 -116 0
-104 -116 0
-18 -31 0
-18 -44 0
-18 -57 0
-18 -69 0
-18 -79 0
-18 -91 0
-18 -105 0
-18 -117 0
-31 -44 0
-31 -57 0
-31 -69 0
-31 -79 0
-31 -91 0
-31 -105 0
-31 -117 0
-44 -57 0
-44 -69 0
-44 -79 0
-44 -91 0
-44 -105 0
-44 -117 0
-57 -69 0
-57 -79 0
-57 -91 0
-57 -105 0
-57 -117 0
-69 -79 0
-69 -91 0
-69 -105 0
-69 -117 0
-79 -91 0
-79 -105 0
-79 -117 0
-91 -105 0
-91 -117 0
-105 -117 0
-19 -32 0
-19 -45 0
-19 -58 0
-19 -70 0
-19 -80 0
-19 -92 0
-19 -118 0
-32 -45 0
-32 -58 0
-32 -70 0
-32 -80 0
-32 -92 0
-32 -118 0
-45 -58 0
-45 -70 0
-45 -80 0
-45 -92 0
-45 -118 0
-58 -70 0
-58 -80 0
-58 -92 0
-58 -118 0
-70 -80 0
-70 -92 0
-70 -118 0
-80 -92 0
-80 -118 0
-92 -118 0
-8 -20 0
-8 -33 0
-8 -46 0
-8 -59 0
-8 -71 0
-8 -93 0
-8 -119 0
-20 -33 0
-20 -46 0
-20 -59 0
-20 -71 0
-20 -93 0
-20 -119 0
-33 -46 0
-33 -59 0
-33 -71 0
-33 -93 0
-33 -119 0
-46 -59 0
-46 -71 0
-46 -93 0
-46 -119 0
-59 -71 0
-59 -93 0
-59 -119 0
-71 -93 0
-71 -119 0
-93 -119 0
-21 -34 0
-21 -47 0
-21 -60 0
-21 -72 0
-21 -81 0
-21 -94 0
-21 -106 0
-21 -120 0
-34 -47 0
-34 -60 0
-34 -72 0
-34 -81 0
-34 -94 0
-34 -106 0
-34 -120 0
-47 -60 0
-47 -72 0
-47 -81 0
-47 -94 0
-47 -106 0
-47 -120 0
-60 -72 0
-60 -81 0
-60 -94 0
-60 -106 0
-60 -120 0
-72 -81 0
-72 -94 0
-72 -106 0
-72 -120 0
-81 -94 0
-81 -106 0
-81 -120 0
-94 -106 0
-94 -120 0
-106 -120 0
-9 -22 0
-9 -35 0
-9 -48 0
-9 -61 0
-9 -82 0
-9 -95 0
-9 -107 0
-9 -121 0
-22 -35 0
-22 -48 0
-22 -61 0
-22 -82 0
-22 -95 0
-22 -107 0
-22 -121 0
-35 -48 0
-35 -61 0
-35 -82 0
-35 -95 0
-35 -107 0
-35 -121 0
-48 -61 0
-48 -82 0
-48 -95 0
-48 -107 0
-48 -121 0
-61 -82 0
-61 -95 0
-61 -107 0
-61 -121 0
-82 -95 0
-82 -107 0
-82 -121 0
-95 -107 0
-95 -121 0
-107 -121 0
